#######################
Slurm job id: 17497813_155
Running on machine: p45
Running cmd: /nfs/shared/static-builds/gurobi1003 SOFTMEMLIMIT=125 MIPFocus=2 Presolve=2 TimeLimit=300 seed=4 /nfs/models/miplib2010/k16x240.mps.bz2
#######################
Set parameter TimeLimit to value 300
Set parameter SoftMemLimit to value 125
Set parameter MIPFocus to value 2
Set parameter LogFile to value 1003-MIPFocus2-Presolve2-TimeLimit300-k16x240-4.log
Set parameter Presolve to value 2
Set parameter Seed to value 4
Using license file /opt/gurobi/gurobi.lic

Gurobi Optimizer version 10.0.3 build v10.0.3rc0 (linux64)
Copyright (c) 2023, Gurobi Optimization, LLC

Read MPS format model from file /nfs/models/miplib2010/k16x240.mps.bz2
Reading time = 0.00 seconds
k16x240: 256 rows, 480 columns, 960 nonzeros

CPU model: Intel(R) Xeon(R) E-2388G CPU @ 3.20GHz, instruction set [SSE2|AVX|AVX2|AVX512]
Thread count: 8 physical cores, 16 logical processors, using up to 16 threads

Optimize a model with 256 rows, 480 columns and 960 nonzeros
Model fingerprint: 0x4e80885f
Variable types: 240 continuous, 240 integer (240 binary)
Coefficient statistics:
  Matrix range     [1e+00, 1e+03]
  Objective range  [1e+00, 1e+03]
  Bounds range     [1e+00, 1e+03]
  RHS range        [4e+00, 4e+02]
Found heuristic solution: objective 20422.000000
Presolve time: 0.00s
Presolved: 256 rows, 480 columns, 960 nonzeros
Variable types: 240 continuous, 240 integer (240 binary)
Root relaxation presolve removed 241 rows and 240 columns
Root relaxation presolved: 15 rows, 240 columns, 450 nonzeros


Root relaxation: objective 2.769838e+03, 16 iterations, 0.00 seconds (0.00 work units)

    Nodes    |    Current Node    |     Objective Bounds      |     Work
 Expl Unexpl |  Obj  Depth IntInf | Incumbent    BestBd   Gap | It/Node Time

     0     0 2769.83800    0   14 20422.0000 2769.83800  86.4%     -    0s
H    0     0                    11359.000000 2769.83800  75.6%     -    0s
H    0     0                    11322.000000 8116.87580  28.3%     -    0s
H    0     0                    11261.000000 8116.87580  27.9%     -    0s
H    0     0                    11240.000000 8116.87580  27.8%     -    0s
H    0     0                    11219.000000 8116.87580  27.7%     -    0s
H    0     0                    11164.000000 8116.87580  27.3%     -    0s
     0     0 8116.87580    0   26 11164.0000 8116.87580  27.3%     -    0s
H    0     0                    11077.000000 8116.87580  26.7%     -    0s
     0     0 8571.49855    0   28 11077.0000 8571.49855  22.6%     -    0s
     0     0 8595.10166    0   26 11077.0000 8595.10166  22.4%     -    0s
H    0     0                    11036.000000 8595.10166  22.1%     -    0s
     0     0 8728.11295    0   22 11036.0000 8728.11295  20.9%     -    0s
H    0     0                    10917.000000 8728.11295  20.1%     -    0s
H    0     0                    10779.000000 8786.97548  18.5%     -    0s
     0     0 8786.97548    0   20 10779.0000 8786.97548  18.5%     -    0s
     0     0 8819.50543    0   34 10779.0000 8819.50543  18.2%     -    0s
     0     0 8819.75247    0   32 10779.0000 8819.75247  18.2%     -    0s
     0     0 8971.87726    0   34 10779.0000 8971.87726  16.8%     -    0s
     0     0 9021.86215    0   31 10779.0000 9021.86215  16.3%     -    0s
     0     0 9032.40712    0   40 10779.0000 9032.40712  16.2%     -    0s
     0     0 9087.61427    0   39 10779.0000 9087.61427  15.7%     -    0s
     0     0 9087.61427    0   39 10779.0000 9087.61427  15.7%     -    0s
H    0     0                    10681.000000 9093.84553  14.9%     -    0s
     0     2 9093.84553    0   39 10681.0000 9093.84553  14.9%     -    0s
H   38    40                    10674.000000 9164.52988  14.1%  55.7    0s
 28348 11659     cutoff   48      10674.0000 10029.8434  6.03%  22.8    5s
 68208 18126     cutoff   49      10674.0000 10220.1620  4.25%  24.1   10s
 108715 16786 10574.7463   41   24 10674.0000 10366.2083  2.88%  24.7   15s
 147813  3887     cutoff   43      10674.0000 10536.2711  1.29%  24.5   20s

Cutting planes:
  Gomory: 1
  Lift-and-project: 14
  Cover: 68
  Implied bound: 15
  MIR: 179
  Flow cover: 309
  Flow path: 37
  Inf proof: 5
  Zero half: 8
  Network: 48
  Relax-and-lift: 3

Explored 154167 nodes (3711330 simplex iterations) in 20.56 seconds (33.60 work units)
Thread count was 16 (of 16 available processors)

Solution count 10: 10674 10681 10779 ... 11261

Optimal solution found (tolerance 1.00e-04)
Best objective 1.067400000000e+04, best bound 1.067400000000e+04, gap 0.0000%
